8114
0 0 1 0 0 1 0 0 1 0 0 0 0 0 0 0 0 0 1 1 1 1 1 0 0 1 1 1 0 1 
29 29 29 29 29 29 29 19 22 22 19 22 22 22 22 2 2 2 2 2 2 5 5 5 5 5 5 8 8 8 8 8 29 29 29 2 2 5 25 22 29 19 21 22 25 26 18 27 29 18 29 27 27 22 25 26 27 18 18 26 19 19 29 18 26 27 26 27 20 18 
